week_length = 7;
nb_workers = 47;
min_daysoff = 2;
max_daysoff = 4;
min_work = 2;
max_work = 7;
nb_shifts = 3;
shift_name = ["D", "A", "N"];
shift_block_min = [2, 2, 2];
shift_block_max = [7, 7, 6];
nb_forbidden = 3;
forbidden_before = [3, 3, 2];
forbidden_after = [1, 2, 1];
temp_req = array2d(1..3,1..7,[15, 15, 15, 15, 15, 6, 0, 15, 15, 15, 15, 15, 6, 0, 9, 9, 9, 9, 6, 0, 9]);
